(declare-const X String)
; /filename=[\x22\x27]?[^\n]*\x2epif[\x22\x27\s]/si
(assert (str.in_re X (re.++ (str.to_re "/filename=") (re.opt (re.union (str.to_re "\u{22}") (str.to_re "'"))) (re.* (re.comp (str.to_re "\u{a}"))) (str.to_re ".pif") (re.union (str.to_re "\u{22}") (str.to_re "'") (str.to_re " ") (str.to_re "\u{9}") (str.to_re "\u{a}") (str.to_re "\u{c}") (str.to_re "\u{d}")) (str.to_re "/si\u{a}"))))
; /\x2eexe([\?\x5c\x2f]|$)/smiU
(assert (str.in_re X (re.++ (str.to_re "/.exe") (re.union (str.to_re "?") (str.to_re "\u{5c}") (str.to_re "/")) (str.to_re "/smiU\u{a}"))))
(check-sat)

(exit)
